
Gurobi 13.0.1 (linux64) logging started Sun Mar 22 01:10:25 2026

Set parameter LogFile to value "logs/75B_3F_robust_gamma_0d75_theta_0d05199999999999999_2026-03-22_01h10m10s.log"
Gurobi Optimizer version 13.0.1 build v13.0.1rc0 (linux64 - "Linux Mint 22")

CPU model: 12th Gen Intel(R) Core(TM) i7-12700, instruction set [SSE2|AVX|AVX2]
Thread count: 20 physical cores, 20 logical processors, using up to 20 threads

Non-default parameters:
TimeLimit  3600
SoftMemLimit  12

Optimize a model with 45596 rows, 867096 columns and 2644377 nonzeros (Max)
Model fingerprint: 0x64cedad1
Model has 832586 linear objective coefficients
Variable types: 12096 continuous, 855000 integer (855000 binary)
Coefficient statistics:
  Matrix range     [3e-05, 1e+05]
  Objective range  [1e+00, 3e+03]
  Bounds range     [1e+00, 1e+05]
  RHS range        [1e-02, 1e+05]

Presolve removed 23361 rows and 626499 columns
Presolve time: 1.47s
Presolved: 22235 rows, 240597 columns, 754072 nonzeros
Variable types: 5898 continuous, 234699 integer (234699 binary)
Found heuristic solution: objective -4.12338e+08
Deterministic concurrent LP optimizer: primal simplex, dual simplex, and barrier
Showing barrier log only...

Root barrier log...

Ordering time: 0.48s

Barrier statistics:
 AA' NZ     : 3.860e+05
 Factor NZ  : 3.362e+06 (roughly 130 MB of memory)
 Factor Ops : 9.985e+08 (less than 1 second per iteration)
 Threads    : 18

                  Objective                Residual
Iter       Primal          Dual         Primal    Dual     Compl     Time
   0  -8.70991035e+11  1.19652804e+09  2.53e+07 1.02e+03  1.06e+07     3s
   1  -9.04385109e+10  2.95928586e+09  2.63e+06 3.05e-11  1.12e+06     3s
   2  -3.30752008e+09  1.83960682e+09  9.56e+04 4.21e-11  4.42e+04     3s
   3  -6.68388734e+07  1.53039314e+09  7.71e+03 3.52e-11  5.86e+03     3s
   4   1.85888666e+08  7.53438515e+08  1.10e+03 3.62e-11  1.44e+03     3s
   5   2.20106092e+08  4.69000721e+08  3.66e+02 3.82e-11  5.88e+02     3s
   6   2.30500997e+08  3.01007661e+08  1.59e+02 3.46e-11  1.76e+02     3s
   7   2.34117879e+08  2.66638918e+08  8.63e+01 3.57e-11  8.30e+01     3s
   8   2.36457439e+08  2.54181692e+08  4.08e+01 3.73e-11  4.38e+01     3s
   9   2.37744670e+08  2.44206245e+08  1.72e+01 9.69e-11  1.62e+01     3s
  10   2.38207636e+08  2.41361583e+08  9.00e+00 9.23e-11  7.67e+00     3s
  11   2.38612679e+08  2.39928082e+08  1.70e+00 8.09e-11  2.84e+00     3s
  12   2.38699604e+08  2.39588687e+08  5.78e-01 1.11e-10  1.84e+00     3s
  13   2.38747401e+08  2.39121332e+08  2.48e-01 7.84e-11  7.63e-01     4s
  14   2.38775344e+08  2.39036957e+08  1.34e-01 9.45e-11  5.32e-01     4s
  15   2.38819114e+08  2.38974792e+08  3.76e-02 9.82e-11  3.16e-01     4s
  16   2.38830356e+08  2.38911090e+08  1.84e-02 6.64e-11  1.64e-01     4s
  17   2.38840938e+08  2.38883417e+08  2.97e-03 1.03e-10  8.63e-02     4s
  18   2.38842177e+08  2.38865887e+08  1.89e-03 1.02e-10  4.82e-02     4s
  19   2.38843668e+08  2.38857349e+08  6.88e-04 8.32e-11  2.78e-02     4s
  20   2.38844299e+08  2.38852996e+08  2.36e-04 7.89e-11  1.77e-02     4s
  21   2.38844496e+08  2.38851923e+08  1.15e-04 9.91e-11  1.51e-02     4s
  22   2.38844519e+08  2.38849618e+08  7.93e-05 1.16e-10  1.04e-02     4s
  23   2.38844618e+08  2.38848212e+08  3.50e-05 1.07e-10  7.30e-03     4s
  24   2.38844651e+08  2.38846929e+08  2.34e-05 1.12e-10  4.63e-03     4s
  25   2.38844685e+08  2.38846600e+08  1.10e-05 1.12e-10  3.89e-03     4s
  26   2.38844704e+08  2.38846010e+08  4.90e-06 1.22e-10  2.65e-03     4s
  27   2.38844705e+08  2.38845114e+08  2.42e-06 7.78e-11  8.31e-04     4s
  28   2.38844717e+08  2.38844919e+08  6.98e-07 1.04e-10  4.10e-04     4s
  29   2.38844719e+08  2.38844783e+08  1.84e-07 7.98e-11  1.29e-04     4s
  30   2.38844722e+08  2.38844732e+08  5.81e-08 9.11e-11  1.97e-05     4s
  31   2.38844723e+08  2.38844726e+08  2.13e-08 1.00e-10  5.94e-06     4s
  32   2.38844724e+08  2.38844724e+08  7.08e-10 7.91e-11  2.44e-07     4s
  33   2.38844724e+08  2.38844724e+08  1.63e-09 7.98e-11  2.07e-10     4s

Barrier solved model in 33 iterations and 4.48 seconds (6.44 work units)
Optimal objective 2.38844724e+08

Crossover time: 0.40 seconds (0.38 work units)
Concurrent spin time: 0.98s (can be avoided by choosing Method=3)

Solved with barrier

Root simplex log...

Iteration    Objective       Primal Inf.    Dual Inf.      Time
   10021    2.3884472e+08   0.000000e+00   0.000000e+00      6s

Root relaxation: objective 2.388447e+08, 10021 iterations, 3.78 seconds (3.40 work units)

    Nodes    |    Current Node    |     Objective Bounds      |     Work
 Expl Unexpl |  Obj  Depth IntInf | Incumbent    BestBd   Gap | It/Node Time

     0     0 2.3884e+08    0 6065 -4.123e+08 2.3884e+08   158%     -    6s
H    0     0                    6.926985e+07 2.3884e+08   245%     -    7s
H    0     0                    1.485203e+08 2.3884e+08  60.8%     -    7s
H    0     0                    1.528202e+08 2.3884e+08  56.3%     -    7s
H    0     0                    1.549502e+08 2.3884e+08  54.1%     -    8s
H    0     0                    1.634923e+08 2.3884e+08  46.1%     -    8s
H    0     0                    1.732078e+08 2.3884e+08  37.9%     -    8s
H    0     0                    1.732082e+08 2.3884e+08  37.9%     -   10s
H    0     0                    1.732119e+08 2.3884e+08  37.9%     -   10s
H    0     0                    1.732131e+08 2.3884e+08  37.9%     -   10s
H    0     0                    1.732194e+08 2.3884e+08  37.9%     -   10s
H    0     0                    1.732252e+08 2.3884e+08  37.9%     -   11s
H    0     0                    1.732294e+08 2.3884e+08  37.9%     -   13s
H    0     0                    2.166079e+08 2.3884e+08  10.3%     -   15s
     0     0 2.3884e+08    0 4979 2.1661e+08 2.3884e+08  10.3%     -   26s
     0     0 2.3884e+08    0 6275 2.1661e+08 2.3884e+08  10.3%     -   71s
     0     0 2.3884e+08    0 6106 2.1661e+08 2.3884e+08  10.3%     -   73s
     0     0 2.3884e+08    0 7254 2.1661e+08 2.3884e+08  10.3%     -  103s
     0     0 2.3884e+08    0 7349 2.1661e+08 2.3884e+08  10.3%     -  108s
     0     0 2.3884e+08    0 7310 2.1661e+08 2.3884e+08  10.3%     -  123s
     0     0 2.3884e+08    0 7310 2.1661e+08 2.3884e+08  10.3%     -  126s
     0     0 2.3884e+08    0 6617 2.1661e+08 2.3884e+08  10.3%     -  127s
H    0     0                    2.227554e+08 2.3884e+08  7.22%     -  158s
H    0     0                    2.232565e+08 2.3884e+08  6.98%     -  160s
H    0     0                    2.240273e+08 2.3884e+08  6.61%     -  165s
H    0     0                    2.267030e+08 2.3884e+08  5.35%     -  189s
H    0     0                    2.271707e+08 2.3884e+08  5.14%     -  201s
H    0     0                    2.277997e+08 2.3884e+08  4.85%     -  211s
H    0     0                    2.278729e+08 2.3884e+08  4.81%     -  217s
H    0     0                    2.278775e+08 2.3884e+08  4.81%     -  252s
H    0     0                    2.278813e+08 2.3884e+08  4.81%     -  271s
H    0     0                    2.278849e+08 2.3884e+08  4.81%     -  271s
H    0     0                    2.278856e+08 2.3884e+08  4.81%     -  290s
     0     2 2.3884e+08    0 6617 2.2789e+08 2.3884e+08  4.81%     -  293s
     1     4 2.3884e+08    1 6760 2.2789e+08 2.3884e+08  4.81%   455  324s
     3     8 2.3884e+08    2 7032 2.2789e+08 2.3884e+08  4.81%  4750  360s
     7    16 2.3884e+08    3 7011 2.2789e+08 2.3884e+08  4.81%  5802  400s
    15    29 2.3884e+08    4 7202 2.2789e+08 2.3884e+08  4.81%  5388  653s
    28    36 2.3884e+08    5 5652 2.2789e+08 2.3884e+08  4.81% 10733  903s
    35    55 2.3884e+08    6 5499 2.2789e+08 2.3884e+08  4.81% 12946 1133s
    54    86 2.3884e+08    7 5441 2.2789e+08 2.3884e+08  4.81% 10240 1554s
H   61    86                    2.278868e+08 2.3884e+08  4.81%  9242 1554s
H   63    86                    2.278964e+08 2.3884e+08  4.80%  9029 1554s
H   85   108                    2.288255e+08 2.3884e+08  4.38%  7353 2240s
H   89   108                    2.288257e+08 2.3884e+08  4.38%  7068 2240s
H   90   108                    2.288264e+08 2.3884e+08  4.38%  7029 2240s
H   92   108                    2.288359e+08 2.3884e+08  4.37%  6933 2240s
   107   603 2.3884e+08    9 5544 2.2884e+08 2.3884e+08  4.37%  6363 3600s

Cutting planes:
  Implied bound: 1
  MIR: 12
  Flow cover: 92
  RLT: 3136

Explored 602 nodes (2087135 simplex iterations) in 3600.08 seconds (2879.90 work units)
Thread count was 20 (of 20 available processors)

Solution count 10: 2.28836e+08 2.28836e+08 2.28826e+08 ... 2.27881e+08

Time limit reached
Best objective 2.288358941267e+08, best bound 2.388428270155e+08, gap 4.3730%
